32      4       
18      16      16      13      
0       0       0       0       0       1       2       
9       18      0       0       13      1       3       
4       0       16      0       9       2       4       8       
5       0       16      0       10      1       5       
6       18      12      0       0       2       6       7       
4       18      16      0       0       2       9       12      
5       18      0       0       13      1       10      
10      6       0       0       13      1       9       
4       0       16      16      0       2       11      13      
3       18      10      0       0       2       11      13      
4       0       16      13      0       3       14      15      17      
7       18      7       0       0       3       14      15      17      
5       18      0       14      0       1       14      
2       0       0       16      12      3       16      18      24      
5       18      0       0       13      2       16      24      
3       18      16      0       0       3       19      20      22      
10      0       16      14      0       3       19      20      23      
5       18      0       0       13      3       20      22      23      
10      0       16      13      0       1       21      
5       0       0       16      13      1       25      
8       0       16      0       12      1       25      
5       7       0       16      0       1       25      
5       0       0       16      4       1       25      
3       18      0       0       13      1       25      
1       0       14      16      0       2       26      27      
1       16      0       7       0       2       28      29      
4       16      0       11      0       1       28      
2       0       0       16      13      2       30      31      
9       0       0       16      12      1       30      
6       0       13      0       13      1       32      
8       0       16      16      0       1       32      
0       0       0       0       0       0       
